100
100
99
99
96
96
95
93
92
92
91
91
90
90
88
88
87
86
83
83
83
83
81
81
80
80
78
78
76
76
74
73
72
72
70
69
69
68
67
66
58
57
56
55
55
55
54
54
54
54
53
51
51
51
48
48
47
47
47
46
46
46
45
44
43
43
43
42
41
40
40
35
34
31
29
26
24
24
23
23
22
22
22
21
20
18
17
17
15
14
12
12
11
9
9
8
6
4
3
3
1
1
